decision_x1=[0,2];
decision_x2=[0,2];
decision_x3=[0,2];
decision_x4=[0,2];
decision_x5=[0,2];
decision_x6=[0,2];
decision_x7=[0,2];
decision_x8=[0,2];
decision_x9=[0,2];
decision_x10=[0,2];
random_y1=[0,2];
random_y2=[0,2];
constraint_x4_x3=[
0,1,7.3|
0,2,4.3|
1,0,8.4|
1,2,4|
2,0,6.4|
2,1,4.1|
];
constraint_x5_x4=[
0,1,9.9|
0,2,6.2|
1,0,7.3|
1,2,9.2|
2,0,1.4|
2,1,5.3|
];
constraint_x6_x1=[
0,1,7.4|
0,2,7.4|
1,0,9.4|
1,2,2.8|
2,0,9.2|
2,1,5.6|
];
constraint_x6_x3=[
0,1,2.5|
0,2,3.2|
1,0,0.91|
1,2,8.6|
2,0,7.1|
2,1,6.3|
];
constraint_x6_x4=[
0,1,7.6|
0,2,9.5|
1,0,8.3|
1,2,8.6|
2,0,4.5|
2,1,2.6|
];
constraint_x6_x5=[
0,1,2.2|
0,2,4.6|
1,0,4.9|
1,2,9.6|
2,0,0.23|
2,1,2|
];
constraint_x7_x3=[
0,1,9.2|
0,2,4.8|
1,0,6.1|
1,2,7.1|
2,0,0.074|
2,1,1.4|
];
constraint_x7_x4=[
0,1,2.3|
0,2,5.1|
1,0,9.9|
1,2,5.7|
2,0,2.2|
2,1,1.8|
];
constraint_x7_x6=[
0,1,2.4|
0,2,7.8|
1,0,8.2|
1,2,9.8|
2,0,5.8|
2,1,0.21|
];
constraint_x8_x1=[
0,1,9.8|
0,2,6.9|
1,0,6.3|
1,2,0.34|
2,0,7.7|
2,1,5.1|
];
constraint_x8_x2=[
0,1,6|
0,2,9.3|
1,0,6.8|
1,2,4.1|
2,0,9.4|
2,1,3.3|
];
constraint_x8_x3=[
0,1,1.4|
0,2,4.8|
1,0,7.8|
1,2,8.9|
2,0,0.31|
2,1,4.8|
];
constraint_x8_x7=[
0,1,6.7|
0,2,6|
1,0,8.9|
1,2,5.2|
2,0,5.9|
2,1,4.4|
];
constraint_x9_x3=[
0,1,3.1|
0,2,6.7|
1,0,9.2|
1,2,5.2|
2,0,8.1|
2,1,6.8|
];
constraint_x9_x4=[
0,1,8.2|
0,2,1.1|
1,0,4.7|
1,2,5.7|
2,0,5|
2,1,9.3|
];
constraint_x9_x5=[
0,1,5.4|
0,2,8.9|
1,0,6.2|
1,2,1.2|
2,0,1.8|
2,1,1.9|
];
constraint_x9_x6=[
0,1,4.9|
0,2,9.3|
1,0,4.6|
1,2,6.1|
2,0,6.9|
2,1,0.4|
];
constraint_x10_x2=[
0,1,9|
0,2,7.2|
1,0,0.72|
1,2,2.7|
2,0,1.9|
2,1,7.7|
];
constraint_x10_x4=[
0,1,4.6|
0,2,5.1|
1,0,6.5|
1,2,4.2|
2,0,4.6|
2,1,2.3|
];
constraint_x10_x5=[
0,1,10|
0,2,5.3|
1,0,8.7|
1,2,1.1|
2,0,7.3|
2,1,1.7|
];
constraint_x10_x7=[
0,1,5.6|
0,2,9.5|
1,0,4.9|
1,2,6.1|
2,0,8.8|
2,1,6.4|
];
constraint_x10_x8=[
0,1,1.7|
0,2,5.9|
1,0,9.9|
1,2,1.5|
2,0,4.6|
2,1,9.4|
];
constraint_x10_x9=[
0,1,1.3|
0,2,8.8|
1,0,2.3|
1,2,8.9|
2,0,5|
2,1,2.3|
];
constraint_x1_y1=[
0,0,0.72|
0,1,3|
0,2,8.4|
1,0,1.3|
1,1,0.43|
1,2,5.8|
2,0,5.4|
2,1,1|
2,2,2.3|
];
constraint_x2_y2=[
0,0,7.2|
0,1,2|
0,2,5.8|
1,0,0.25|
1,1,8.1|
1,2,5.9|
2,0,7.9|
2,1,6|
2,2,6.7|
];
initial_distribution_y1=[0.31,0.3,0.39];
initial_distribution_y2=[0.49,0.47,0.04];
transition_y1=[
0.45,0.028,0.52|
0.59,0.086,0.33|
0.16,0.25,0.59|
];
transition_y2=[
0.25,0.3,0.45|
0.5,0.43,0.066|
0.75,0.2,0.044|
];
